100
128
9
59
14
21
49
30
53
33
5
34
15
61
29
30
40
54
23
49
48
39
20
1
16
24
54
14
51
4
18
62
37
26
46
14
44
1
62
29
22
1
38
1
24
37
21
5
14
33
28
17
19
37
60
33
18
15
52
28
16
26
22
22
38
63
15
15
18
7
40
5
26
17
39
2
55
17
33
8
29
27
25
24
2
21
28
23
45
21
63
31
11
4
35
42
30
2
30
34
52
7